50
    12    41    24    73    68    97    81     4    36    80    18     4    55     7    92    73    25    89    74    53    15    25    54    29    60     6    36    22    57    14    39    98    72    21    98    62    37    88    65    57    46    70     5    72    61    10     2    32    11    43
     6     4     1     5     2    10     9     4     3     9     1     9     3     3     7     9     5     5     1     5     4     3     4     1     2     1    10     1     2     2     8     2     8     7     1     4    10     1     8    10     2     9     2     2     5     3     1     8    10    10
  1404  1632   750  1216  1913  1846  1975  1618  1642  1704  2041  1000  1398   813  1751  1485  1826  1249  1515  1405  1026  1788  2079  1667  1188  1167  1797  1722  2042  2014  1530  1779  1949  1627  1913  1543  1057  1460  1320  1044  1003  2058  1452   763  1139  1444  1145  1071  1004  1154
